NAME : mtspf
COMMENT : file for mtspf test
TYPE : ATSP
DIMENSION : 9
EDGE_WEIGHT_TYPE : EXPLICIT
EDGE_WEIGHT_FORMAT : FULL_MATRIX
EDGE_WEIGHT_SECTION
0 0 0 -1000000 33 20 35 37 38
0 0 0 10 28 35 -1000000 26 19
0 0 0 32 1000000 1000000 34 12 19
0 0 0 0 22 29 24 26 27
0 0 0 22 0 1000000 24 4 9
0 0 0 29 17 0 31 21 22
0 0 0 24 24 31 0 22 -1000000
0 0 0 26 -1000000 21 22 0 7
0 0 0 27 9 22 15 -1000000 0
